RAW/XT/fspd/X-n162-k11.vrp_seed-2.out
13497	5.369	44.274
