RAW/XT/fspd/X-n162-k11.vrp_seed-2.sol
Route #1: 15 139 149 89 14 1 55 60 21 9 27 117 97 17 127
Route #2: 72 141 135 159 147 121 85 84 122 107 133 138 126 105 10 29
Route #3: 156 115 103 40 157 30 118 82 2 109 148 134 124 128 110 153 160 143 144 119
Route #4: 7 44 75 33 3 51 42 65 69 46 61 41 76 8 54
Route #5: 25 47 98 161 77 104 83 63 113 70 12 64 18 19 34 78
Route #6: 52 79 20 22 67 62 114 95 129 96 102 116 80
Route #7: 111 154 140 31 106 88 142 43 123 56 66 100 94 36 35 99 130 86 53
Route #8: 136 74 81 108 137 39 146 151 101 4 87 112 132 93 125 92 155
Route #9: 59 50 45 152 28 26 48 11 73 38 58 68 145 90 150
Route #10: 23 24 49 6 13 71 37 131 57 32 16 5 120 158 91
Cost 13497.000000